nApps = 201
nRes = 9
nActs = 410
nNetworks = 6

assignmentToResources = [1,1,3,1,2,3,1,1,1,3,2,1,3,3,1,1,3,3,1,3,1,3,1,1,2,2,2,1,1,2,2,1,1,1,1,1,3,2,3,2,1,3,1,3,3,2,1,3,3,2,3,2,3,2,1,3,2,3,1,1,2,2,1,3,1,1,3,3,2,3,3,3,3,3,3,1,1,1,2,3,2,3,1,2,1,1,1,1,2,2,2,3,1,3,3,3,3,3,3,3,4,4,4,4,6,6,6,4,4,6,4,4,4,4,4,4,4,4,6,5,5,4,4,6,6,6,4,4,4,4,4,6,6,6,6,6,4,4,4,4,4,5,5,5,5,5,5,5,5,4,4,4,4,5,5,5,5,5,5,5,4,4,4,4,4,5,5,5,6,4,4,6,4,4,6,5,4,4,4,6,5,5,5,6,6,5,5,6,6,6,6,4,4,4,4,4,4,4,4,4,4,4,5,6,6,6,4,4,4,4,4,4,5,5,5,5,6,5,5,5,4,4,5,5,5,5,5,6,6,6,6,6,5,7,6,8,4,8,6,7,4,8,4,8,5,9,4,8,4,8,6,8,5,7,6,8,6,7,5,7,5,9,4,8,6,7,5,9,4,8,4,9,5,7,4,8,6,7,9,9,9,8,7,7,7,8,9,7,9,9,8,9,8,9,9,8,7,9,9,8,9,7,8,7,9,9,9,9,9,8,7,7,7,7,8,8,9,9,8,7,9,7,7,9,7,9,7,9,9,9,9,7,9,7,7,9,9,9,9,9,9,9,9,7,9,7,7,8,8,7,8,9,8,7,9,9,9,7,9,7,7,8,7,9,9,7,7,8,8,9,8,9,9,9,9,8,9,8,8,9,9,7,7,7,8,8,9,9,8,8,7,9,7,9,7,9,9,9,9,9,9,7,9,7,7,7,7,7,8,7];

processingTimes = [136,120,144,112,96,120,104,120,144,168,104,48,168,120,128,168,104,136,136,128,96,104,96,160,48,168,112,80,168,104,112,48,48,48,168,104,136,128,168,136,112,88,112,80,72,56,120,136,136,136,80,128,80,48,136,104,128,128,112,48,56,112,56,48,136,56,48,128,144,104,120,56,96,48,48,64,56,128,72,72,64,88,104,136,104,120,136,120,56,120,80,144,64,168,128,144,144,128,88,120,500,4,3,4,4,3,3,5,4,5,500,3,3,500,500,4,3,3,3,500,3,9,3,3,3,4,4,500,500,8,3,500,4,4,3,4,500,4,5,4,4,4,4,500,4,4,4,4,3,8,4,4,4,5,5,5,4,3,500,500,4,4,500,500,500,4,500,3,4,4,500,500,3,13,3,4,15,500,8,3,3,3,100,5,3,3,8,4,500,4,8,100,3,3,3,5,5,3,3,4,4,200,3,4,3,500,4,500,23,4,4,3,4,4,3,3,4,8,8,500,4,4,500,4,3,3,4,8,8,4,5,5,4,4,4,4,4,4,23,23,4,4,3,3,8,8,4,4,4,4,5,5,4,4,4,4,4,4,3,3,3,3,3,3,500,500,4,4,3,3,3,3,8,8,4,4,5,5,500,4,3,4,4,3,3,5,4,5,500,3,3,500,500,4,3,3,3,500,3,9,3,3,3,4,4,500,500,8,3,500,4,4,3,4,500,4,5,4,4,4,4,500,4,4,4,4,3,8,4,4,4,5,5,5,4,3,500,500,4,4,500,500,500,4,500,3,4,4,500,500,3,13,3,4,15,500,8,3,3,3,100,5,3,3,8,4,500,4,8,100,3,3,3,5,5,3,3,4,4,200,3,4,3,500,4,500,23,4,4,3,4,4,3,3,4,8,8,500,4,4,500,4,3,3,4,8,8,4,5,5];

periods = [10000,20000,10000,20000,20000,20000,100000,20000,100000,10000,10000,1000,20000,20000,20000,10000,100000,10000,100000,10000,20000,10000,10000,100000,20000,10000,20000,20000,100000,20000,10000,100000,100000,20000,10000,10000,20000,100000,20000,1000,10000,10000,20000,20000,20000,100000,5000,20000,20000,1000,50000,20000,20000,10000,10000,1000,10000,20000,20000,1000,100000,20000,10000,10000,20000,2000,100000,100000,10000,10000,20000,100000,10000,10000,5000,100000,10000,50000,100000,1000,20000,10000,20000,10000,20000,100000,20000,1000,50000,100000,2000,20000,10000,100000,10000,10000,10000,100000,100000,100000,10000,10000,10000,20000,10000,10000,10000,20000,20000,20000,100000,100000,100000,100000,20000,20000,100000,100000,10000,10000,10000,1000,1000,20000,20000,20000,20000,20000,10000,10000,10000,100000,100000,10000,10000,10000,100000,20000,20000,20000,10000,20000,10000,10000,20000,20000,20000,20000,20000,20000,100000,100000,100000,20000,20000,20000,20000,10000,10000,10000,100000,100000,100000,10000,10000,100000,100000,100000,20000,10000,10000,10000,20000,20000,20000,100000,5000,5000,5000,20000,1000,1000,1000,50000,50000,20000,20000,20000,20000,1000,20000,1000,10000,10000,10000,20000,20000,20000,20000,2000,2000,2000,10000,10000,10000,10000,100000,100000,100000,100000,50000,50000,100000,100000,100000,100000,1000,20000,20000,10000,20000,20000,50000,100000,2000,2000,2000,10000,10000,100000,100000,100000,10000,10000,10000,10000,10000,10000,10000,10000,10000,10000,10000,10000,10000,10000,20000,20000,20000,20000,20000,20000,20000,20000,10000,10000,10000,10000,10000,10000,10000,10000,10000,10000,10000,10000,20000,20000,20000,20000,20000,20000,20000,20000,1000,1000,1000,1000,10000,10000,10000,20000,10000,10000,10000,20000,20000,20000,100000,100000,100000,100000,20000,20000,100000,100000,10000,10000,10000,1000,1000,20000,20000,20000,20000,20000,10000,10000,10000,100000,100000,10000,10000,10000,100000,20000,20000,20000,10000,20000,10000,10000,20000,20000,20000,20000,20000,20000,100000,100000,100000,20000,20000,20000,20000,10000,10000,10000,100000,100000,100000,10000,10000,100000,100000,100000,20000,10000,10000,10000,20000,20000,20000,100000,5000,5000,5000,20000,1000,1000,1000,50000,50000,20000,20000,20000,20000,1000,20000,1000,10000,10000,10000,20000,20000,20000,20000,2000,2000,2000,10000,10000,10000,10000,100000,100000,100000,100000,50000,50000,100000,100000,100000,100000,1000,20000,20000,10000,20000,20000,50000,100000,2000,2000,2000,10000,10000,100000,100000,100000];

assignmentToClusters = [1,2,3,4,5,6,7,8,9,3,10,11,12,13,5,14,15,16,17,18,5,19,3,20,6,3,21,22,23,24,25,26,27,28,10,29,30,31,32,33,34,35,36,37,38,39,40,24,41,42,43,5,44,1,18,42,1,45,28,42,39,28,3,46,6,47,48,49,10,10,50,51,52,10,53,54,10,55,39,56,37,10,57,10,58,59,37,60,61,62,63,37,3,64,1,65,66,67,68,69,70,71,72,73,74,75,76,77,78,79,80,81,82,83,84,85,86,87,88,89,90,91,92,93,94,95,96,97,98,99,100,101,102,103,104,105,106,107,108,109,110,111,112,113,114,115,116,117,118,119,120,121,122,123,124,125,126,127,128,129,130,131,132,133,134,135,136,137,138,139,140,141,142,143,144,145,146,147,148,149,150,151,152,153,154,155,156,157,158,159,160,161,162,163,164,165,166,167,168,169,170,171,172,173,174,175,176,177,178,179,180,181,182,183,184,185,186,187,188,189,190,191,192,193,194,195,196,197,198,199,200,201,1,1,1,1,1,1,3,3,3,3,3,3,3,3,5,5,5,5,6,6,6,6,10,10,10,10,10,10,10,10,10,10,18,18,24,24,28,28,37,37,37,37,42,42,42,42,70,71,72,73,74,75,76,77,78,79,80,81,82,83,84,85,86,87,88,89,90,91,92,93,94,95,96,97,98,99,100,101,102,103,104,105,106,107,108,109,110,111,112,113,114,115,116,117,118,119,120,121,122,123,124,125,126,127,128,129,130,131,132,133,134,135,136,137,138,139,140,141,142,143,144,145,146,147,148,149,150,151,152,153,154,155,156,157,158,159,160,161,162,163,164,165,166,167,168,169,170,171,172,173,174,175,176,177,178,179,180,181,182,183,184,185,186,187,188,189,190,191,192,193,194,195,196,197,198,199,200,201];

precedenceAdjList = [[233],[],[],[],[51,247],[],[],[],[],[245],[255],[],[],[],[],[],[],[],[],[],[],[],[],[],[251],[241,243],[],[],[],[],[],[],[],[58],[257,259],[],[],[],[],[],[],[],[],[271],[],[60],[],[267],[],[275],[],[249],[],[237],[265],[],[235],[],[],[277],[78],[269],[239],[],[253],[],[],[],[263],[261],[],[],[],[],[],[],[34],[],[],[],[],[69],[],[],[],[],[273],[],[],[],[],[43],[22],[],[],[],[],[],[],[],[],[],[],[],[],[],[],[],[],[],[],[],[],[],[],[],[],[],[],[],[],[],[],[],[],[],[],[],[],[],[],[],[],[],[],[],[],[],[],[],[],[],[],[],[],[],[],[],[],[],[],[],[],[],[],[],[],[],[],[],[],[],[],[],[],[],[],[],[],[],[],[],[],[],[],[],[],[],[],[],[],[],[],[],[],[],[],[],[],[],[],[],[],[],[],[],[],[],[],[],[],[],[],[],[],[],[],[],[],[],[],[],[],[],[],[],[],[],[],[],[],[],[],[],[],[],[],[],[],[],[],[],[56],[232],[94],[234],[0],[236],[2],[238],[92],[240],[62],[242],[25],[244],[20],[246],[14],[248],[5],[250],[24],[252],[73],[254],[69],[256],[10],[258],[83],[260],[34],[262],[19],[264],[29],[266],[33],[268],[86],[270],[80],[272],[59],[274],[55],[276],[100],[101],[102],[103],[104],[105],[106],[107],[108],[109],[110],[111],[112],[113],[114],[115],[116],[117],[118],[119],[120],[121],[122],[123],[124],[125],[126],[127],[128],[129],[130],[131],[132],[133],[134],[135],[136],[137],[138],[139],[140],[141],[142],[143],[144],[145],[146],[147],[148],[149],[150],[151],[152],[153],[154],[155],[156],[157],[158],[159],[160],[161],[162],[163],[164],[165],[166],[167],[168],[169],[170],[171],[172],[173],[174],[175],[176],[177],[178],[179],[180],[181],[182],[183],[184],[185],[186],[187],[188],[189],[190],[191],[192],[193],[194],[195],[196],[197],[198],[199],[200],[201],[202],[203],[204],[205],[206],[207],[208],[209],[210],[211],[212],[213],[214],[215],[216],[217],[218],[219],[220],[221],[222],[223],[224],[225],[226],[227],[228],[229],[230],[231]];